<instance format="XCSP3" type="CSP">
  <constraints>
    <instantiation>
       <list> x y z </list>
       <values> 12 4 30 </values>
    </instantiation>
    <instantiation>
       <list> w[] </list>
       <values> 1 0 2 1 3 1 </values>
    </instantiation>
  </constraints>
</instance>
